c ren 1 -> 1
c ren 2 -> 2
c ren 3 -> 3
c ren 7 -> 4
c ren 8 -> 5
c ren 9 -> 6
c ren 14 -> 7
c ren 19 -> 8
c ren 20 -> 9
c ren 24 -> 10
c ren 25 -> 11
c ren 27 -> 12
c ren 30 -> 13
c ren 31 -> 14
c ren 33 -> 15
c ren 36 -> 16
c ren 38 -> 17
c ren 41 -> 18
c ren 47 -> 19
c ren 50 -> 20
c ren 52 -> 21
c ren 55 -> 22
c ren 57 -> 23
c ren 60 -> 24
c ren 61 -> 25
c ren 63 -> 26
c ren 66 -> 27
c ren 68 -> 28
c ren 71 -> 29
c ren 73 -> 30
c ren 76 -> 31
c ren 77 -> 32
c ren 79 -> 33
c ren 82 -> 34
c ren 84 -> 35
c ren 87 -> 36
c ren 91 -> 37
c ren 94 -> 38
c ren 96 -> 39
c ren 99 -> 40
c ren 104 -> 41
c ren 110 -> 42
c ren 111 -> 43
c ren 113 -> 44
c ren 116 -> 45
c ren 118 -> 46
c ren 121 -> 47
c ren 122 -> 48
c ren 123 -> 49
c ren 126 -> 50
c ren 128 -> 51
c ren 131 -> 52
c ren 133 -> 53
c ren 136 -> 54
c ren 138 -> 55
c ren 141 -> 56
c ren 145 -> 57
c ren 148 -> 58
c ren 150 -> 59
c ren 153 -> 60
c ren 155 -> 61
c ren 158 -> 62
c ren 162 -> 63
c ren 165 -> 64
c ren 167 -> 65
c ren 170 -> 66
c ren 172 -> 67
c ren 175 -> 68
c ren 179 -> 69
c ren 182 -> 70
c ren 184 -> 71
c ren 187 -> 72
c ren 189 -> 73
c ren 192 -> 74
c ren 196 -> 75
c ren 199 -> 76
c ren 201 -> 77
c ren 204 -> 78
c ren 208 -> 79
c ren 211 -> 80
c ren 213 -> 81
c ren 216 -> 82
c ren 218 -> 83
c ren 221 -> 84
c ren 225 -> 85
c ren 228 -> 86
c ren 233 -> 87
c ren 240 -> 88
c ren 244 -> 89
c ren 245 -> 90
c ren 249 -> 91
c ren 252 -> 92
c ren 253 -> 93
c ren 256 -> 94
c ren 257 -> 95
c ren 259 -> 96
c ren 262 -> 97
c ren 263 -> 98
c ren 266 -> 99
c ren 267 -> 100
c ren 270 -> 101
c ren 271 -> 102
c ren 274 -> 103
c ren 276 -> 104
c ren 279 -> 105
c ren 283 -> 106
c ren 286 -> 107
c ren 288 -> 108
c ren 291 -> 109
c ren 293 -> 110
c ren 296 -> 111
c ren 297 -> 112
c ren 300 -> 113
c ren 301 -> 114
c ren 304 -> 115
c ren 305 -> 116
c ren 308 -> 117
c ren 309 -> 118
c ren 312 -> 119
c ren 313 -> 120
c ren 314 -> 121
c ren 316 -> 122
c ren 319 -> 123
c ren 323 -> 124
c ren 326 -> 125
c ren 328 -> 126
c ren 331 -> 127
c ren 332 -> 128
c ren 335 -> 129
c ren 339 -> 130
c ren 342 -> 131
c ren 343 -> 132
c ren 345 -> 133
c ren 348 -> 134
c ren 349 -> 135
c ren 352 -> 136
c ren 356 -> 137
c ren 360 -> 138
c ren 364 -> 139
c ren 368 -> 140
c ren 369 -> 141
c ren 370 -> 142
c ren 373 -> 143
c ren 374 -> 144
c ren 377 -> 145
c ren 379 -> 146
c ren 381 -> 147
c ren 384 -> 148
c ren 386 -> 149
c ren 389 -> 150
c ren 391 -> 151
c ren 394 -> 152
c ren 398 -> 153
c ren 401 -> 154
c ren 403 -> 155
c ren 406 -> 156
c ren 408 -> 157
c ren 411 -> 158
c ren 412 -> 159
c ren 416 -> 160
c ren 419 -> 161
c ren 420 -> 162
c ren 423 -> 163
c ren 427 -> 164
c ren 430 -> 165
c ren 431 -> 166
c ren 433 -> 167
c ren 436 -> 168
c ren 443 -> 169
c ren 448 -> 170
c ren 452 -> 171
c ren 453 -> 172
c ren 457 -> 173
c ren 460 -> 174
c ren 461 -> 175
c ren 464 -> 176
c ren 465 -> 177
c ren 468 -> 178
c ren 472 -> 179
c ren 475 -> 180
c ren 476 -> 181
c ren 479 -> 182
c ren 483 -> 183
c ren 509 -> 184
p cnf 184 744
a 1 2 3 4 5 6 7 8 9 11 13 14 16 18 20 22 24 25 27 29 31 32 34 36 38 40 41 43 45 47 50 52 54 56 58 60 62 64 66 68 70 72 74 76 78 80 82 84 86 87 88 90 92 94 97 99 101 103 105 107 109 111 113 115 117 119 123 125 127 129 131 134 136 137 138 139 141 143 145 148 150 152 154 156 158 161 163 165 168 169 170 172 174 176 178 180 182 0
d 95 2 3 0
d 120 3 14 0
d 121 6 32 0
d 132 117 127 0
d 146 141 143 0
d 159 113 134 0
d 166 9 32 0
d 184 176 180 0
e 10 12 15 17 19 21 23 26 28 30 33 35 37 39 42 44 46 48 49 51 53 55 57 59 61 63 65 67 69 71 73 75 77 79 81 83 85 89 91 93 96 98 100 102 104 106 108 110 112 114 116 118 122 124 126 128 130 133 135 140 142 144 147 149 151 153 155 157 160 162 164 167 171 173 175 177 179 181 183 0
1 2 4 5 7 8 -10 0
-1 -2 -3 -4 -5 -6 7 -8 -9 -10 0
-1 3 10 0
-1 -2 -3 4 5 -7 8 9 -10 0
-1 -2 -3 -4 -5 -6 7 8 9 -10 0
-1 -2 -3 4 6 -7 -8 -9 -10 0
5 -92 -93 0
-5 -6 -92 93 0
1 2 -4 -5 -6 -7 8 -10 0
-1 2 10 0
1 -2 -3 10 0
1 -2 3 -4 -5 -6 -7 -8 -9 -10 0
1 2 4 6 7 8 -10 0
-1 -4 -7 10 0
-4 5 10 0
1 3 4 6 7 8 9 -10 0
4 -5 -6 10 0
-1 4 7 10 0
1 -2 3 4 6 7 -8 -9 -10 0
1 -4 7 10 0
1 3 4 5 7 8 9 -10 0
6 92 93 0
2 -97 -98 0
-2 -9 -97 98 0
9 -97 -98 0
-2 8 -9 10 0
-1 -2 -3 4 5 -7 -8 -9 -10 0
2 97 98 0
9 97 98 0
-8 9 10 0
3 -11 -12 0
-3 -5 -11 12 0
5 99 100 0
-3 -5 11 -12 0
3 99 100 0
3 -99 -100 0
-3 -5 -99 100 0
12 42 0
-8 10 -12 -15 -17 -19 -20 -21 -23 -26 -27 -28 -30 -33 -35 -37 38 -39 -40 -41 -42 0
1 4 -7 10 0
6 -13 -15 0
-6 -13 -14 15 0
14 101 102 0
-6 13 -14 -15 0
6 101 102 0
6 -101 -102 0
-6 -14 -101 102 0
15 42 0
-4 6 10 0
11 13 -16 -17 0
-11 -13 16 17 0
11 -13 16 -17 0
-11 13 -16 17 0
-11 13 16 -17 0
-11 -13 -16 -17 0
11 13 16 17 0
11 -13 -16 17 0
17 42 0
8 10 -12 -15 -17 -19 -21 -23 -26 -27 -28 -30 -33 -35 -37 38 -39 -40 41 -42 0
1 -18 -19 0
4 18 19 0
4 -18 -19 0
-1 -4 -18 19 0
1 18 19 0
-1 -4 18 -19 0
19 42 0
10 -12 -15 -17 -19 20 -21 -23 -26 -27 -28 -30 -33 -35 -37 38 -39 -40 41 -42 0
16 18 -20 -21 0
-16 -18 20 21 0
16 -18 20 -21 0
-16 18 -20 21 0
-16 18 20 -21 0
-16 -18 -20 -21 0
16 18 20 21 0
16 -18 -20 21 0
21 42 0
8 20 -22 -23 0
-8 -20 22 23 0
8 -20 22 -23 0
-8 20 -22 23 0
-8 20 22 -23 0
-8 -20 -22 -23 0
8 20 22 23 0
8 -20 -22 23 0
23 42 0
2 -24 -26 0
-2 -24 -25 26 0
25 111 112 0
-2 24 -25 -26 0
2 111 112 0
2 -111 -112 0
-2 -25 -111 112 0
26 42 0
-8 10 -12 -15 -17 -19 -20 -21 -23 -26 27 -28 -30 -33 -35 -37 -38 -39 -40 -41 -42 0
5 -27 -28 0
-5 -9 -27 28 0
9 115 116 0
-5 -9 27 -28 0
5 115 116 0
5 -115 -116 0
-5 -9 -115 116 0
28 42 0
3 -29 -30 0
-3 -14 -29 30 0
-3 -14 29 -30 0
14 29 30 0
14 -29 -30 0
3 29 30 0
30 42 0
8 10 -12 -15 -17 -19 -21 -23 -26 27 -28 -30 -33 -35 -37 -38 -39 -40 41 -42 0
6 -31 -33 0
-6 -31 -32 33 0
-6 31 -32 -33 0
31 32 33 0
-31 32 -33 0
6 31 33 0
33 42 0
10 -12 -15 -17 -19 20 -21 -23 -26 27 -28 -30 -33 -35 -37 -38 -39 -40 41 -42 0
29 31 -34 -35 0
-29 -31 34 35 0
29 -31 34 -35 0
-29 31 -34 35 0
-29 31 34 -35 0
-29 -31 -34 -35 0
29 31 34 35 0
29 -31 -34 35 0
35 42 0
11 16 -36 -37 0
-16 -18 -36 37 0
13 18 36 37 0
13 16 -36 -37 0
-11 -13 -36 37 0
13 18 -36 -37 0
11 16 36 37 0
11 18 36 37 0
-11 -13 36 -37 0
11 18 -36 -37 0
-16 -18 36 -37 0
37 42 0
34 36 -38 -39 0
-34 -36 38 39 0
34 -36 38 -39 0
-34 36 -38 39 0
-34 36 38 -39 0
-34 -36 -38 -39 0
34 36 38 39 0
34 -36 -38 39 0
39 42 0
-8 10 -12 -15 -17 -19 -20 -21 -23 -26 -27 -28 -30 -33 -35 -37 -38 -39 40 -41 -42 0
10 -12 -15 -17 -19 20 -21 -23 -26 27 -28 -30 -33 -35 -37 38 -39 40 41 -42 0
8 10 -12 -15 -17 -19 -21 -23 -26 27 -28 -30 -33 -35 -37 38 -39 40 41 -42 0
8 10 -12 -15 -17 -19 -21 -23 -26 -27 -28 -30 -33 -35 -37 -38 -39 40 41 -42 0
5 -99 -100 0
10 -12 -15 -17 -19 20 -21 -23 -26 -27 -28 -30 -33 -35 -37 -38 -39 40 41 -42 0
-8 10 -12 -15 -17 -19 -20 -21 -23 -26 27 -28 -30 -33 -35 -37 38 -39 40 -41 -42 0
8 -41 42 0
20 -41 42 0
-27 38 40 42 0
27 -38 40 42 0
-8 -20 41 42 0
-10 42 0
14 -101 -102 0
40 41 -43 -44 0
-40 -41 43 44 0
40 -41 43 -44 0
-40 41 -43 44 0
-40 41 43 -44 0
-40 -41 -43 -44 0
40 41 43 44 0
40 -41 -43 44 0
44 89 0
-25 42 -44 -46 -49 -51 -53 -55 -57 -59 -61 -63 -65 -67 -69 -71 -72 -73 -74 -75 -77 -79 -81 -83 -85 -86 -87 88 -89 0
25 -111 -112 0
24 43 -45 -46 0
-24 -43 45 46 0
24 -43 45 -46 0
-24 43 -45 46 0
-24 43 45 -46 0
-24 -43 -45 -46 0
24 43 45 46 0
24 -43 -45 46 0
46 89 0
-25 42 -44 -46 -49 -51 -53 -55 -57 -59 -61 -63 -65 -67 -69 -71 -73 -75 -76 -77 -78 -79 -81 -83 -85 -86 -87 88 -89 0
5 -48 0
25 -48 0
-5 -25 48 0
-47 -48 49 0
47 48 49 0
-47 48 -49 0
47 -48 -49 0
49 89 0
-25 -32 42 -44 -46 -49 -51 -53 -55 -57 -59 -61 -63 -65 -67 -69 -71 72 -73 -75 -77 -79 -81 -83 -85 -86 87 -88 -89 0
9 -50 -51 0
-9 -14 -50 51 0
14 -137 140 0
-9 -14 50 -51 0
9 -137 140 0
-3 9 -32 -48 89 -91 -93 -96 -98 -100 -102 -104 -106 -108 -110 -112 -114 -116 -118 -122 -124 -126 -128 -130 -133 -135 -136 137 -138 -139 -140 0
-9 -14 137 140 0
51 89 0
27 38 -40 42 0
3 -52 -53 0
-3 -32 -52 53 0
32 -138 140 0
-3 -32 52 -53 0
3 -138 140 0
3 -9 -14 -48 89 -91 -93 -96 -98 -100 -102 -104 -106 -108 -110 -112 -114 -116 -118 -122 -124 -126 -128 -130 -133 -135 -136 -137 138 139 -140 0
-3 -32 138 140 0
53 89 0
52 -54 -55 0
-52 -54 55 0
-52 54 -55 0
52 54 55 0
55 89 0
-25 -32 42 -44 -46 -49 -51 -53 -55 -57 -59 -61 -63 -65 -67 -69 -71 -73 74 -75 -77 78 -79 -81 -83 -85 -86 87 -88 -89 0
29 34 -56 -57 0
-34 -36 -56 57 0
31 36 56 57 0
31 34 -56 -57 0
-29 -31 -56 57 0
31 36 -56 -57 0
29 34 56 57 0
29 36 56 57 0
-29 -31 56 -57 0
29 36 -56 -57 0
-34 -36 56 -57 0
31 34 56 57 0
57 89 0
25 42 -44 -46 -49 -51 -53 -55 -57 -59 -61 -63 -65 -67 -69 -71 -72 -73 -74 -75 -77 -79 -81 -83 -85 86 -87 -88 -89 0
54 56 -58 -59 0
-54 -56 58 59 0
54 -56 58 -59 0
-54 56 -58 59 0
-54 56 58 -59 0
-54 -56 -58 -59 0
54 56 58 59 0
54 -56 -58 59 0
59 89 0
25 42 -44 -46 -49 -51 -53 -55 -57 -59 -61 -63 -65 -67 -69 -71 -73 -75 -76 -77 -78 -79 -81 -83 -85 86 -87 -88 -89 0
50 58 -60 -61 0
-50 -58 60 61 0
50 -58 60 -61 0
-50 58 -60 61 0
-50 58 60 -61 0
-50 -58 -60 -61 0
50 58 60 61 0
50 -58 -60 61 0
61 89 0
25 42 -44 -46 -49 -51 -53 -55 -57 -59 -61 -63 -65 -67 -69 -71 72 -73 -75 -77 -79 -81 -83 -85 86 87 88 -89 0
27 40 -62 -63 0
-40 -41 -62 63 0
38 41 62 63 0
38 40 -62 -63 0
-27 -38 -62 63 0
38 41 -62 -63 0
27 41 62 63 0
-27 -38 62 -63 0
27 41 -62 -63 0
-40 -41 62 -63 0
38 40 62 63 0
63 89 0
25 42 -44 -46 -49 -51 -53 -55 -57 -59 -61 -63 -65 -67 -69 -71 -73 74 -75 76 -77 -79 -81 -83 -85 86 87 88 -89 0
60 62 -64 -65 0
-60 -62 64 65 0
60 -62 64 -65 0
-60 62 -64 65 0
-60 62 64 -65 0
-60 -62 -64 -65 0
60 62 64 65 0
60 -62 -64 65 0
65 89 0
47 64 -66 -67 0
-47 -64 66 67 0
47 -64 66 -67 0
-47 64 -66 67 0
-47 64 66 -67 0
-47 -64 -66 -67 0
47 64 66 67 0
47 -64 -66 67 0
67 89 0
25 42 -44 -46 -49 -51 -53 -55 -57 -59 -61 -63 -65 -67 -69 -71 -73 74 -75 -77 78 -79 -81 -83 -85 86 87 88 -89 0
24 -68 -69 0
43 -68 -69 0
-24 -43 -68 69 0
24 68 69 0
-24 -43 68 -69 0
43 68 69 0
69 89 0
14 -70 -71 0
-14 -25 -70 71 0
25 161 162 0
-14 -25 70 -71 0
14 161 162 0
14 -161 -162 0
-14 -25 -161 162 0
71 89 0
32 -53 -55 -73 -75 -76 -77 0
9 -72 -73 0
-9 -32 -72 73 0
-9 -32 72 -73 0
32 72 73 0
32 -72 -73 0
9 72 73 0
73 89 0
54 -74 -75 0
-54 -56 -74 75 0
56 74 75 0
56 -74 -75 0
-54 -56 74 -75 0
52 54 74 75 0
75 89 0
32 42 -44 -46 -49 -51 -53 -55 -57 -59 -61 -63 -65 -67 -69 -71 -73 -75 -77 -79 -81 -83 -85 86 87 88 -89 0
72 74 -76 -77 0
-72 -74 76 77 0
72 -74 76 -77 0
-72 74 -76 77 0
-72 74 76 -77 0
-72 -74 -76 -77 0
72 74 76 77 0
72 -74 -76 77 0
77 89 0
50 60 -78 -79 0
-60 -62 -78 79 0
58 62 78 79 0
58 60 -78 -79 0
-50 -58 -78 79 0
58 62 -78 -79 0
50 60 78 79 0
50 62 78 79 0
-50 -58 78 -79 0
50 62 -78 -79 0
-60 -62 78 -79 0
79 89 0
-42 89 0
76 78 -80 -81 0
-76 -78 80 81 0
76 -78 80 -81 0
-76 78 -80 81 0
-76 78 80 -81 0
-76 -78 -80 -81 0
76 78 80 81 0
76 -78 -80 81 0
81 89 0
-27 -38 -40 42 0
70 80 -82 -83 0
-70 -80 82 83 0
70 -80 82 -83 0
-70 80 -82 83 0
-70 80 82 -83 0
-70 -80 -82 -83 0
70 80 82 83 0
70 -80 -82 83 0
83 89 0
9 -115 -116 0
47 66 -84 -85 0
-66 -68 -84 85 0
64 68 84 85 0
64 66 -84 -85 0
-47 -64 -84 85 0
64 68 -84 -85 0
47 66 84 85 0
47 68 84 85 0
-47 -64 84 -85 0
47 68 -84 -85 0
-66 -68 84 -85 0
85 89 0
-25 -32 -174 175 0
25 -86 89 0
72 78 -87 89 0
32 174 175 0
-25 -32 86 89 0
-76 -78 87 89 0
72 76 -87 89 0
74 76 -87 89 0
25 -161 -162 0
74 78 -87 89 0
25 174 175 0
86 87 -88 89 0
86 -87 88 89 0
-72 -74 87 89 0
-86 87 88 89 0
32 -86 89 0
-86 -87 -88 89 0
70 82 -90 -91 0
-82 -84 -90 91 0
80 84 90 91 0
80 82 -90 -91 0
-70 -80 -90 91 0
80 84 -90 -91 0
70 82 90 91 0
70 84 90 91 0
-70 -80 90 -91 0
70 84 -90 -91 0
-82 -84 90 -91 0
80 82 90 91 0
91 140 0
3 -9 -14 48 89 -91 -93 -96 -98 -100 -102 -104 -106 -108 -110 -112 -114 -116 -118 -122 -124 -126 -128 -130 -133 -135 136 -137 138 139 -140 0
-5 -6 92 -93 0
1 3 -4 -5 -6 -7 8 9 -10 0
1 -2 3 4 5 7 -8 -9 -10 0
-1 -2 -3 4 6 -7 8 9 -10 0
93 140 0
92 -94 95 -96 0
-92 94 -95 96 0
-92 94 95 -96 0
92 -94 -95 96 0
92 94 -95 -96 0
-92 -94 -95 -96 0
92 94 95 96 0
-92 -94 95 96 0
96 140 0
-2 -9 97 -98 0
5 92 93 0
2 -8 10 0
6 -92 -93 0
98 140 0
9 32 -48 89 -91 -93 -96 -98 -100 -102 -104 -106 -108 -110 -112 -114 -116 -118 -122 -124 -126 -128 -130 -133 -135 -136 137 138 139 -140 0
-3 -5 99 -100 0
5 11 12 0
5 -11 -12 0
3 11 12 0
100 140 0
3 9 -48 89 -91 -93 -96 -98 -100 -102 -104 -106 -108 -110 -112 -114 -116 -118 -122 -124 -126 -128 -130 -133 -135 -136 137 138 139 -140 0
-6 -14 101 -102 0
13 14 15 0
-13 14 -15 0
6 13 15 0
102 140 0
99 101 -103 -104 0
-99 -101 103 104 0
99 -101 103 -104 0
-99 101 -103 104 0
-99 101 103 -104 0
-99 -101 -103 -104 0
99 101 103 104 0
99 -101 -103 104 0
104 140 0
92 -105 -106 0
95 105 106 0
95 -105 -106 0
-92 -95 -105 106 0
92 105 106 0
-92 -95 105 -106 0
106 140 0
32 -52 -53 0
103 105 -107 -108 0
-103 -105 107 108 0
103 -105 107 -108 0
-103 105 -107 108 0
-103 105 107 -108 0
-103 -105 -107 -108 0
103 105 107 108 0
103 -105 -107 108 0
108 140 0
3 9 48 89 -91 -93 -96 -98 -100 -102 -104 -106 -108 -110 -112 -114 -116 -118 -122 -124 -126 -128 -130 -133 -135 136 137 138 139 -140 0
97 107 -109 -110 0
-97 -107 109 110 0
97 -107 109 -110 0
-97 107 -109 110 0
-97 107 109 -110 0
-97 -107 -109 -110 0
97 107 109 110 0
97 -107 -109 110 0
110 140 0
-2 -25 111 -112 0
24 25 26 0
-24 25 -26 0
2 24 26 0
112 140 0
-111 -113 114 0
111 113 114 0
111 -113 -114 0
-111 113 -114 0
114 140 0
9 32 48 89 -91 -93 -96 -98 -100 -102 -104 -106 -108 -110 -112 -114 -116 -118 -122 -124 -126 -128 -130 -133 -135 136 137 138 139 -140 0
-5 -9 115 -116 0
9 27 28 0
9 -27 -28 0
5 27 28 0
116 140 0
3 52 53 0
-115 -117 118 0
115 117 118 0
115 -117 -118 0
-115 117 -118 0
118 140 0
-119 120 121 -122 0
119 -120 -121 122 0
119 120 -121 -122 0
-119 -120 121 122 0
119 -120 121 -122 0
-119 -120 -121 -122 0
119 120 121 122 0
-119 120 -121 122 0
122 140 0
99 103 -123 -124 0
-103 -105 -123 124 0
101 105 123 124 0
101 103 -123 -124 0
-99 -101 -123 124 0
101 105 -123 -124 0
99 105 123 124 0
-99 -101 123 -124 0
99 105 -123 -124 0
-103 -105 123 -124 0
101 103 123 124 0
124 140 0
32 52 53 0
-119 125 -126 0
119 123 125 126 0
-123 -125 126 0
119 123 -125 -126 0
-119 -125 126 0
-123 125 -126 0
126 140 0
-89 140 0
-125 -127 128 0
125 127 128 0
125 -127 -128 0
-125 127 -128 0
128 140 0
97 -129 -130 0
107 129 130 0
107 -129 -130 0
-97 -107 -129 130 0
14 32 48 89 -91 -93 -96 -98 -100 -102 -104 -106 -108 -110 -112 -114 -116 -118 -122 -124 -126 -128 -130 -133 -135 136 137 138 139 -140 0
97 129 130 0
-97 -107 129 -130 0
14 32 -48 89 -91 -93 -96 -98 -100 -102 -104 -106 -108 -110 -112 -114 -116 -118 -122 -124 -126 -128 -130 -133 -135 -136 137 138 139 -140 0
130 140 0
129 -131 132 -133 0
-129 131 -132 133 0
-129 131 132 -133 0
129 -131 -132 133 0
129 131 -132 -133 0
-129 -131 -132 -133 0
129 131 132 133 0
-129 -131 132 133 0
133 140 0
-131 -134 135 0
131 134 135 0
131 -134 -135 0
-131 134 -135 0
135 140 0
-3 9 -32 48 89 -91 -93 -96 -98 -100 -102 -104 -106 -108 -110 -112 -114 -116 -118 -122 -124 -126 -128 -130 -133 -135 136 137 -138 -139 -140 0
-9 -14 32 48 89 -91 -93 -96 -98 -100 -102 -104 -106 -108 -110 -112 -114 -116 -118 -122 -124 -126 -128 -130 -133 -135 136 -137 138 139 -140 0
138 -139 140 0
-48 136 140 0
-3 -9 -14 -32 48 89 -91 -93 -96 -98 -100 -102 -104 -106 -108 -110 -112 -114 -116 -118 -122 -124 -126 -128 -130 -133 -135 136 -137 -138 -139 -140 0
-3 -9 -14 -32 -48 89 -91 -93 -96 -98 -100 -102 -104 -106 -108 -110 -112 -114 -116 -118 -122 -124 -126 -128 -130 -133 -135 -136 -137 -138 -139 -140 0
-138 139 140 0
48 -136 140 0
-120 -141 142 0
120 141 142 0
120 -141 -142 0
-120 141 -142 0
142 171 0
-137 140 -142 -144 -147 -148 -149 -151 -153 -155 -157 -160 161 -162 -164 165 -167 -168 -169 -170 -171 0
-121 -143 144 0
121 143 144 0
121 -143 -144 0
-121 143 -144 0
144 171 0
-137 140 -142 -144 -147 -148 -149 -151 -153 -155 -157 -160 -161 -162 -164 165 -167 -168 -169 170 -171 0
119 -145 146 -147 0
-119 -123 -145 147 0
119 145 146 147 0
123 145 146 147 0
-145 -146 147 0
123 -145 146 -147 0
-119 -123 145 -147 0
145 -146 -147 0
147 171 0
-137 140 -142 -144 -147 -148 -149 -151 -153 -155 -157 -160 -161 -162 -164 -165 -167 -168 169 -170 -171 0
139 145 -148 -149 0
-139 -145 148 149 0
139 -145 148 -149 0
-139 145 -148 149 0
-139 145 148 -149 0
-139 -145 -148 -149 0
139 145 148 149 0
139 -145 -148 149 0
149 171 0
-137 140 -142 -144 -147 -148 -149 -151 -153 -155 -157 -160 161 -162 -164 -165 -167 -168 169 170 -171 0
137 148 -150 -151 0
-137 -148 150 151 0
137 -148 150 -151 0
-137 148 -150 151 0
-137 148 150 -151 0
-137 -148 -150 -151 0
137 148 150 151 0
137 -148 -150 151 0
151 171 0
140 -142 -144 -147 -149 -150 -151 -152 -153 -155 -157 -160 161 -162 -164 165 -167 -168 -169 -170 -171 0
115 129 -152 -153 0
-129 -132 -152 153 0
125 132 152 153 0
125 129 -152 -153 0
-115 -125 -152 153 0
125 132 -152 -153 0
115 129 152 153 0
115 132 152 153 0
-115 -125 152 -153 0
115 132 -152 -153 0
-129 -132 152 -153 0
125 129 152 153 0
153 171 0
140 -142 -144 -147 -149 -150 -151 -152 -153 -155 -157 -160 -161 -162 -164 165 -167 -168 -169 170 -171 0
150 152 -154 -155 0
-150 -152 154 155 0
150 -152 154 -155 0
-150 152 -154 155 0
-150 152 154 -155 0
-150 -152 -154 -155 0
150 152 154 155 0
150 -152 -154 155 0
155 171 0
140 -142 -144 -147 -149 -150 -151 -152 -153 -155 -157 -160 -161 -162 -164 -165 -167 -168 169 -170 -171 0
136 154 -156 -157 0
-136 -154 156 157 0
136 -154 156 -157 0
-136 154 -156 157 0
-136 154 156 -157 0
-136 -154 -156 -157 0
136 154 156 157 0
136 -154 -156 157 0
157 171 0
140 -142 -144 -147 -149 -150 -151 -152 -153 -155 -157 -160 161 -162 -164 -165 -167 -168 169 170 -171 0
111 -158 -160 0
131 158 160 0
131 -158 -160 0
-111 -131 -158 160 0
-3 14 -32 48 89 -91 -93 -96 -98 -100 -102 -104 -106 -108 -110 -112 -114 -116 -118 -122 -124 -126 -128 -130 -133 -135 136 137 -138 -139 -140 0
111 158 160 0
-3 14 -32 -48 89 -91 -93 -96 -98 -100 -102 -104 -106 -108 -110 -112 -114 -116 -118 -122 -124 -126 -128 -130 -133 -135 -136 137 -138 -139 -140 0
-111 -131 158 -160 0
3 14 -48 89 -91 -93 -96 -98 -100 -102 -104 -106 -108 -110 -112 -114 -116 -118 -122 -124 -126 -128 -130 -133 -135 -136 137 138 139 -140 0
3 14 48 89 -91 -93 -96 -98 -100 -102 -104 -106 -108 -110 -112 -114 -116 -118 -122 -124 -126 -128 -130 -133 -135 136 137 138 139 -140 0
160 171 0
137 140 -142 -144 -147 -149 150 -151 -153 -155 -157 -160 161 -162 -164 -165 -167 168 -169 -170 -171 0
-14 -25 161 -162 0
25 70 71 0
25 -70 -71 0
14 70 71 0
162 171 0
137 140 -142 -144 -147 -149 -151 -153 -155 -157 -160 -161 -162 -164 -165 -167 168 -169 170 -171 0
139 -163 -164 0
-139 -145 -163 164 0
145 163 164 0
14 -50 -51 0
145 -163 -164 0
139 163 164 0
14 50 51 0
9 50 51 0
-139 -145 163 -164 0
164 171 0
-9 -14 32 -48 89 -91 -93 -96 -98 -100 -102 -104 -106 -108 -110 -112 -114 -116 -118 -122 -124 -126 -128 -130 -133 -135 -136 -137 138 139 -140 0
163 -165 166 -167 0
-163 165 -166 167 0
-163 165 166 -167 0
163 -165 -166 167 0
163 165 -166 -167 0
-163 -165 -166 -167 0
163 165 166 167 0
-163 -165 166 167 0
167 171 0
140 -142 -144 -147 148 -149 -151 152 -153 -155 -157 -160 -161 -162 -164 -165 -167 168 -169 170 -171 0
137 140 -142 -144 -147 -149 -151 152 -153 -155 -157 -160 161 -162 -164 -165 -167 168 -169 -170 -171 0
140 -142 -144 -147 148 -149 -151 152 -153 -155 -157 -160 161 -162 -164 165 -167 168 169 170 -171 0
137 140 -142 -144 -147 -149 -151 -153 -155 -157 -160 -161 -162 -164 165 -167 168 169 -170 -171 0
140 -142 -144 -147 148 -149 150 -151 -153 -155 -157 -160 161 -162 -164 165 -167 168 169 170 -171 0
140 -142 -144 -147 148 -149 -151 152 -153 -155 -157 -160 161 -162 -164 -165 -167 168 -169 -170 -171 0
137 140 -142 -144 -147 -149 -151 152 -153 -155 -157 -160 161 -162 -164 165 -167 168 169 170 -171 0
140 -142 -144 -147 148 -149 150 -151 -153 -155 -157 -160 -161 -162 -164 -165 -167 168 -169 170 -171 0
-140 171 0
140 -142 -144 -147 148 -149 -151 152 -153 -155 -157 -160 -161 -162 -164 165 -167 168 169 -170 -171 0
137 140 -142 -144 -147 -149 -151 152 -155 -157 -160 -161 -162 -164 -165 -167 168 -169 170 -171 0
-156 -158 -172 173 0
154 158 172 173 0
-136 -154 -172 173 0
136 156 172 173 0
136 158 172 173 0
154 156 172 173 0
-88 -90 171 -173 -175 -177 178 -179 -181 -183 184 0
86 90 171 -173 -174 -175 -177 -178 -179 -181 -183 0
-174 -176 177 0
174 176 177 0
87 90 171 -173 -174 -175 -177 -178 -179 -181 -183 0
-165 -168 -178 179 0
166 168 178 179 0
-163 -166 -178 179 0
163 165 178 179 0
163 168 178 179 0
165 166 178 179 0
86 88 171 -173 -174 -175 -177 -178 -179 -181 -183 0
-178 -180 181 0
178 180 181 0
-170 -172 -182 183 0
169 172 182 183 0
-161 -169 -182 183 0
161 170 182 183 0
161 172 182 183 0
-7 94 171 -173 -175 -177 -179 -181 -183 0
7 -94 171 -173 -175 -177 -179 -181 -183 0
22 -109 171 -173 -175 -177 -179 -181 -183 0
-22 109 171 -173 -175 -177 -179 -181 -183 0
66 68 156 -158 171 -173 -175 -177 -179 -181 -183 0
-66 68 -156 -158 171 -173 -175 -177 -179 -181 -183 0
-66 68 156 158 171 -173 -175 -177 -179 -181 -183 0
66 -68 -156 -158 171 -173 -175 -177 -179 -181 -183 0
-45 159 171 -173 -175 -177 -179 -181 -183 0
45 -159 171 -173 -175 -177 -179 -181 -183 0
82 84 170 171 -172 -173 -175 -177 -179 -181 -183 0
-66 -68 -156 158 171 -173 -175 -177 -179 -181 -183 0
66 -68 156 158 171 -173 -175 -177 -179 -181 -183 0
-82 84 -170 171 -172 -173 -175 -177 -179 -181 -183 0
-82 84 170 171 172 -173 -175 -177 -179 -181 -183 0
82 -84 -170 171 -172 -173 -175 -177 -179 -181 -183 0
66 68 -156 158 171 -173 -175 -177 -179 -181 -183 0
-66 -68 156 -158 171 -173 -175 -177 -179 -181 -183 0
88 90 171 -173 -175 -177 -179 -181 -182 -183 184 0
-82 -84 -170 171 172 -173 -175 -177 -179 -181 -183 0
82 -84 170 171 172 -173 -175 -177 -179 -181 -183 0
-88 90 171 -173 -175 -177 -179 -181 -182 -183 -184 0
-88 90 171 -173 -175 -177 -179 -181 182 -183 184 0
88 -90 171 -173 -175 -177 -179 -181 -182 -183 -184 0
82 84 -170 171 172 -173 -175 -177 -179 -181 -183 0
-82 -84 170 171 -172 -173 -175 -177 -179 -181 -183 0
-88 -90 171 -173 174 -175 -177 -179 -181 -183 184 0
-86 -87 171 -173 174 -175 -177 -179 -181 182 -183 0
-88 -90 171 -173 -175 -177 -179 -181 -182 -183 184 0
88 -90 171 -173 -175 -177 -179 -181 182 -183 184 0
86 90 171 -173 -175 -177 -179 -181 -182 -183 -184 0
87 88 171 -173 -174 -175 -177 -178 -179 -181 -183 0
-86 -87 171 -173 -175 -177 178 -179 -181 182 -183 0
-88 -90 171 -173 -175 -177 -179 -181 182 -183 -184 0
87 88 171 -173 -175 -177 -179 -181 -182 -183 -184 0
-86 -87 171 -173 174 -175 -177 -179 -181 -183 184 0
-88 -90 171 -173 174 -175 -177 -179 -181 182 -183 0
-86 -87 171 -173 -175 -177 178 -179 -181 -183 184 0
86 88 171 -173 -175 -177 -179 -181 -182 -183 -184 0
88 90 171 -173 -175 -177 -179 -181 182 -183 -184 0
87 90 171 -173 -175 -177 -179 -181 -182 -183 -184 0
-88 -90 171 -173 -175 -177 178 -179 -181 182 -183 0
